DATASET = "thpack7";
INSTANCE = "096";

WIDTH = 233;
HEIGHT = 220;
LENGTH = 587;

NO_OF_SHAPES = 20;
size = [|
  64,42,26 |
  92,58,52 |
  92,85,21 |
  90,49,33 |
  54,48,34 |
  95,62,45 |
  72,49,46 |
  56,42,25 |
  64,34,26 |
  113,90,54 |
  113,52,42 |
  94,86,38 |
  81,80,68 |
  87,79,55 |
  81,52,45 |
  113,32,24 |
  92,57,25 |
  100,40,33 |
  113,93,40 |
  74,65,22 |
|];

verticality = [|
  0,1,1 |
  1,1,1 |
  0,0,1 |
  0,1,1 |
  1,1,1 |
  0,1,1 |
  1,1,1 |
  0,1,1 |
  0,1,1 |
  0,1,1 |
  0,1,1 |
  0,0,1 |
  1,1,1 |
  1,1,1 |
  1,1,1 |
  0,1,1 |
  0,0,1 |
  0,1,1 |
  0,0,1 |
  0,0,1 |
|];

box_count = [
  9,
  7,
  8,
  8,
  6,
  6,
  8,
  10,
  5,
  6,
  5,
  6,
  5,
  9,
  13,
  10,
  5,
  6,
  6,
  13,
];
